137
100000
12240
41
1489
5610
13426
22013
12766
1682
7705
14967
12965
24327
22712
1085
12436
18814
23914
7445
994
6631
19320
14197
1712
18782
7622
7969
7645
20398
4575
6766
6955
1125
12441
17313
17322
11931
14871
5412
4531
6795
11613
22030
8352
8261
17244
9122
24797
20998
17682
21994
12449
16371
419
16183
19078
903
3
19782
17640
7110
2868
10432
392
8171
6000
5505
10242
4737
13827
1817
7509
9319
6376
3906
20049
9027
9025
8654
2887
19523
5843
23420
3704
5773
12396
2258
19681
9487
10825
19638
9913
14570
9725
730
5951
12003
13655
15954
1031
510
23088
14166
15765
3091
7540
2656
8215
66
19054
15567
23911
10079
6558
21668
24788
21640
20867
11864
2844
470
12947
2971
11622
4782
18610
593
19991
10568
18781
3705
2927
5360
16873
23656
9922
20220
2267
